benchmarks/bfuzz0/32101639822871278933046412322147414255.smt2
(set-logic QF_FP)
(declare-const x0 (_ FloatingPoint 8 24))
(declare-const x1 (_ FloatingPoint 8 24))
(declare-const x2 (_ FloatingPoint 8 24))
(declare-const x3 (_ FloatingPoint 8 24))
(declare-const x4 (_ FloatingPoint 8 24))
(declare-const x5 (_ FloatingPoint 8 24))
(declare-const x6 (_ FloatingPoint 8 24))
(declare-const x7 (_ FloatingPoint 8 24))
(declare-const x8 (_ FloatingPoint 8 24))
(declare-const x9 (_ FloatingPoint 8 24))
(declare-const x10 (_ FloatingPoint 8 24))
(assert (fp.geq (fp.div RNE (fp.add RNE (fp.mul RNE (fp.div RNE x8 x5) (fp.add RNE x2 x10)) (fp.div RNE (fp.neg x3) (fp.sub RNE x5 x1))) (fp.mul RNE (fp.neg (fp.add RNE x0 x9)) (fp.neg (fp.mul RNE x0 x3)))) (fp.add RNE (fp.neg (fp.mul RNE (fp.mul RNE x8 x7) (fp.mul RNE x7 x4))) (fp.div RNE (fp.neg (fp.div RNE x9 x0)) (fp.neg (fp.div RNE x4 x8))))))
(check-sat)
