db/data/32101639822871278933046412322147414255.z3.out
sat
-------------------
48.144800065
